0001 10
0002 8
0003 4
0004 7
0005 5
0006 1
0007 3
0008 4
0009 3
0010 5
0011 2
0012 5
0013 5
0014 5
0015 5
0016 5
0017 1
0018 3
0019 10
0020 6
0021 8
0022 10
0023 3
0024 7
0025 7
0026 1
0027 10
0028 5
0029 8
0030 5
0031 1
0032 1
0033 10
0034 3
0035 7
0036 4
0037 8
0038 5
0039 3
0040 8
0041 10
0042 3
0043 5
0044 1
0045 3
0046 1
0047 7
0048 10
0049 1
0050 3
0051 1
0052 5
0053 10
0054 7
0055 3
0056 5
0057 2
0058 1
0059 10
0060 9
0061 7
0062 3
0063 7
0064 3
0065 6
0066 8
0067 8
0068 3
0069 6
0070 2
0071 8
0072 10
0073 4
0074 1
0075 3
0076 8
0077 3
0078 1
0079 10
0080 8
0081 5
0082 8
0083 1
0084 10
0085 4
0086 1
0087 3
0088 2
0089 5
0090 8
0091 10
0092 4
0093 10
0094 7
0095 5
0096 1
0097 1
0098 6
0099 9
0100 5
0101 5
0102 5
0103 5
0104 5
0105 5
0106 1
0107 10
0108 5
0109 5
0110 1
0111 10
0112 1
0113 7
0114 7
0115 10
0116 3
0117 5
0118 1
0119 1
0120 6
0121 10
0122 8
0123 3
0124 1
0125 5
0126 5
0127 3
0128 3
0129 8
0130 10
0131 1
0132 9
0133 1
0134 7
0135 7
0136 6
0137 9
0138 10
0139 9
0140 1
0141 6
0142 10
0143 8
0144 3
0145 10
0146 7
0147 1
0148 4
0149 10
0150 1
0151 2
0152 1
0153 5
0154 3
0155 8
0156 1
0157 10
0158 10
0159 4
0160 9
0161 9
0162 6
0163 10
0164 1
0165 1
0166 4
0167 1
0168 8
0169 10
0170 3
0171 8
0172 1
0173 8
0174 4
0175 3
0176 6
0177 5
0178 10
0179 8
0180 5
0181 3
0182 5
0183 5
0184 3
